10	5
0	4	2	1	3	9
1	0
2	2	4	10
3	3	7	5	10
4	1	7
5	1	6
6	1	11
7	1	11
8	1	11
9	1	11
10	1	11
11	0
0	0	0	0	0	0	0
1	4	5	5	2	4	4
2	7	2	1	3	2	4
3	2	1	5	5	5	4
4	10	1	1	1	4	4
5	1	1	2	1	5	3
6	3	3	5	2	2	3
7	4	2	1	2	4	3
8	7	4	3	5	4	4
9	6	3	3	4	4	5
10	7	5	2	2	5	3
11	0	0	0	0	0	0
8	7	7	8	9
